7220 9633
1951 3800
3975 6469
9140 6845
291 7660
9729 8284
9966 7823
4956 4722
2135 4303
2607 8407
8256 6185
1386 4260
8734 4545
717 849
6886 7056
6654 5164
5500 5784
7477 1461
5132 1964
752 9706
8865 2036
7935 8413
44 5114
3095 6291
8275 1365
9313 7250
9519 5804
6364 3420
1431 1911
8207 9617
4204 7909
2639 2119
3974 3832
5084 3791
6282 9416
697 1368
5517 3962
6287 4326
3290 3556
833 5606
